% File represents an instance of a Composite Structure problem to be solved by a CP framework
% Created on 2025-03-26 10:41:31.134
T = 58;
n = 25;
m = 40;
edges = [(1, 2),
(7, 6),
(11, 12),
(17, 16),
(22, 21),
(2, 3),
(7, 8),
(12, 13),
(17, 18),
(22, 23),
(4, 3),
(8, 9),
(14, 13),
(19, 18),
(24, 23),
(4, 5),
(9, 10),
(14, 15),
(19, 20),
(24, 25),
(1, 6),
(11, 6),
(11, 16),
(21, 16),
(7, 2),
(7, 12),
(12, 17),
(22, 17),
(8, 3),
(8, 13),
(13, 18),
(23, 18),
(9, 4),
(9, 14),
(14, 19),
(24, 19),
(5, 10),
(15, 10),
(15, 20),
(25, 20)];
counts = [|10, 24, 10, 12,
|10, 24, 10, 10,
|10, 20, 10, 10,
|10, 22, 10, 10,
|10, 20, 10, 10,
|10, 22, 10, 10,
|10, 26, 10, 12,
|10, 26, 10, 10,
|10, 24, 10, 10,
|10, 20, 10, 8,
|10, 26, 10, 10,
|10, 24, 10, 10,
|10, 20, 10, 10,
|10, 22, 10, 10,
|10, 20, 10, 10,
|10, 24, 10, 6,
|10, 24, 10, 8,
|10, 18, 10, 8,
|10, 22, 10, 8,
|8, 20, 8, 8,
|12, 24, 12, 6,
|12, 26, 12, 8,
|10, 24, 10, 8,
|10, 24, 10, 10,
|8, 22, 8, 10|];
